47332 46604 99 98 97 96 95 94 93 92 91 90 89 88 87 86 85 84 83 82 81 78 76 75 73 71 70 69 68 67 64 63 62 61 60 58 57 56 55 54 53 52 51 49 48 47 46 45 40 39 38 37 34 33 32 31 30 29 28 26 25 24 23 22 20 19 18 13 10 9 8 5 4 3 2 